Academic license - for non-commercial use only - expires 2022-11-10
Using license file /home/benedond/Apps/gurobi/gurobi950/gurobi.lic
Using gurobi.env file
Set parameter Threads to value 1
Changed value of parameter TimeLimit to 1200.0
   Prev: inf  Min: 0.0  Max: inf  Default: inf
Gurobi Optimizer version 9.1.2 build v9.1.2rc0 (linux64)
Thread count: 2 physical cores, 4 logical processors, using up to 1 threads
Optimize a model with 2046 rows, 1012 columns and 7830 nonzeros
Model fingerprint: 0xacd43b72
Variable types: 22 continuous, 990 integer (968 binary)
Coefficient statistics:
  Matrix range     [2e-01, 4e+03]
  Objective range  [1e-03, 4e-01]
  Bounds range     [1e+00, 1e+00]
  RHS range        [1e+00, 4e+03]

---------------------------------------------------------------------------
Multi-objectives: starting optimization with 1 objectives ... 
---------------------------------------------------------------------------
---------------------------------------------------------------------------

Multi-objectives: optimize objective 1 (min avg power cons) ...
---------------------------------------------------------------------------

Optimize a model with 2046 rows, 1012 columns and 7830 nonzeros
Model fingerprint: 0x1aadab58
Variable types: 22 continuous, 990 integer (968 binary)
Coefficient statistics:
  Matrix range     [2e-01, 4e+03]
  Objective range  [1e-03, 4e-01]
  Bounds range     [1e+00, 1e+00]
  RHS range        [1e+00, 4e+03]
Presolve removed 1280 rows and 621 columns
Presolve time: 0.05s
Presolved: 766 rows, 391 columns, 2856 nonzeros
Variable types: 18 continuous, 373 integer (355 binary)

Root relaxation: objective 1.295021e+00, 150 iterations, 0.00 seconds

    Nodes    |    Current Node    |     Objective Bounds      |     Work
 Expl Unexpl |  Obj  Depth IntInf | Incumbent    BestBd   Gap | It/Node Time

     0     0    1.29502    0   51          -    1.29502      -     -    0s
H    0     0                       4.2887263    1.29502  69.8%     -    0s
H    0     0                       4.2404000    1.29502  69.5%     -    0s
     0     0    1.61279    0   74    4.24040    1.61279  62.0%     -    0s
H    0     0                       3.8006315    1.61279  57.6%     -    0s
H    0     0                       3.8003789    1.61279  57.6%     -    0s
     0     0    1.66474    0   72    3.80038    1.66474  56.2%     -    0s
     0     0    1.80274    0   85    3.80038    1.80274  52.6%     -    0s
     0     0    1.82233    0   88    3.80038    1.82233  52.0%     -    0s
     0     0    1.82237    0   94    3.80038    1.82237  52.0%     -    0s
     0     0    1.84428    0   60    3.80038    1.84428  51.5%     -    0s
     0     0    1.86928    0   56    3.80038    1.86928  50.8%     -    0s
     0     0    1.87708    0   58    3.80038    1.87708  50.6%     -    0s
     0     0    1.87783    0   66    3.80038    1.87783  50.6%     -    0s
     0     0    1.87783    0   65    3.80038    1.87783  50.6%     -    0s
     0     0    2.00548    0   69    3.80038    2.00548  47.2%     -    0s
     0     0    2.01617    0   71    3.80038    2.01617  46.9%     -    0s
     0     0    2.02983    0   76    3.80038    2.02983  46.6%     -    0s
     0     0    2.03519    0   74    3.80038    2.03519  46.4%     -    0s
     0     0    2.03641    0   72    3.80038    2.03641  46.4%     -    0s
     0     0    2.03668    0   75    3.80038    2.03668  46.4%     -    0s
     0     0    2.03694    0   74    3.80038    2.03694  46.4%     -    0s
     0     0    2.03698    0   75    3.80038    2.03698  46.4%     -    0s
     0     0    2.06808    0   98    3.80038    2.06808  45.6%     -    0s
H    0     0                       3.7731894    2.06808  45.2%     -    0s
     0     0    2.07558    0   79    3.77319    2.07558  45.0%     -    0s
     0     0    2.08052    0   98    3.77319    2.08052  44.9%     -    0s
     0     0    2.08115    0   83    3.77319    2.08115  44.8%     -    0s
     0     0    2.08157    0   87    3.77319    2.08157  44.8%     -    0s
     0     0    2.08169    0   87    3.77319    2.08169  44.8%     -    0s
     0     0    2.08458    0   85    3.77319    2.08458  44.8%     -    0s
     0     0    2.08821    0   87    3.77319    2.08821  44.7%     -    0s
     0     0    2.09242    0   73    3.77319    2.09242  44.5%     -    0s
     0     0    2.09310    0   98    3.77319    2.09310  44.5%     -    0s
     0     0    2.09345    0   96    3.77319    2.09345  44.5%     -    0s
     0     0    2.09347    0   98    3.77319    2.09347  44.5%     -    0s
     0     0    2.09961    0   78    3.77319    2.09961  44.4%     -    0s
     0     0    2.10071    0   81    3.77319    2.10071  44.3%     -    0s
     0     0    2.10127    0   79    3.77319    2.10127  44.3%     -    0s
     0     0    2.10214    0  110    3.77319    2.10214  44.3%     -    0s
     0     0    2.10242    0   85    3.77319    2.10242  44.3%     -    0s
     0     0    2.10458    0   99    3.77319    2.10458  44.2%     -    0s
H    0     0                       3.7702842    2.10458  44.2%     -    0s
     0     0    2.10547    0   87    3.77028    2.10547  44.2%     -    0s
     0     0    2.10697    0   95    3.77028    2.10697  44.1%     -    0s
     0     0    2.10757    0   95    3.77028    2.10757  44.1%     -    0s
     0     0    2.10765    0  105    3.77028    2.10765  44.1%     -    0s
     0     0    2.11247    0   81    3.77028    2.11247  44.0%     -    0s
     0     0    2.11487    0   85    3.77028    2.11487  43.9%     -    0s
     0     0    2.11494    0   87    3.77028    2.11494  43.9%     -    0s
     0     0    2.11721    0   81    3.77028    2.11721  43.8%     -    0s
H    0     0                       3.7631158    2.11721  43.7%     -    0s
     0     0    2.12334    0  100    3.76312    2.12334  43.6%     -    0s
     0     0    2.12623    0  103    3.76312    2.12623  43.5%     -    0s
     0     0    2.12693    0  105    3.76312    2.12693  43.5%     -    0s
     0     0    2.12703    0  107    3.76312    2.12703  43.5%     -    0s
     0     0    2.12959    0  120    3.76312    2.12959  43.4%     -    0s
H    0     0                       3.7474210    2.12959  43.2%     -    0s
     0     0    2.13019    0  114    3.74742    2.13019  43.2%     -    0s
     0     0    2.13041    0  100    3.74742    2.13041  43.1%     -    0s
     0     0    2.13228    0   87    3.74742    2.13228  43.1%     -    0s
H    0     0                       3.5194210    2.13228  39.4%     -    0s
     0     0    2.13250    0  124    3.51942    2.13250  39.4%     -    0s
     0     0    2.13424    0   91    3.51942    2.13424  39.4%     -    0s
     0     0    2.13424    0   89    3.51942    2.13424  39.4%     -    0s
H    0     0                       3.4208842    2.13424  37.6%     -    0s
H    0     0                       3.4169579    2.13424  37.5%     -    0s
     0     2    2.13424    0   89    3.41696    2.13424  37.5%     -    0s
H   26    24                       3.3847052    2.13424  36.9%  63.3    0s
H  104    58                       3.2986421    2.14935  34.8%  48.9    0s
*  244   103              26       3.2855579    2.34518  28.6%  44.6    0s
H  289   102                       3.1554526    2.35506  25.4%  42.8    0s
  1721   438    2.72643   16   68    3.15545    2.72643  13.6%  48.9    5s
  3741   675    2.85196   29   70    3.15545    2.74669  13.0%  48.8   10s
H 4296   763                       3.1371263    2.79303  11.0%  47.0   10s
* 5134   915              68       3.1300105    2.84052  9.25%  44.4   11s
H 5534   922                       3.1143789    2.86067  8.15%  43.5   12s
  7051   783     cutoff   30         3.11438    2.97188  4.58%  41.1   15s
* 7926   511              38       3.1054421    3.01921  2.78%  39.4   15s

Cutting planes:
  Learned: 2
  Cover: 14
  Implied bound: 79
  Projected implied bound: 18
  MIR: 107
  StrongCG: 2
  Flow cover: 93
  GUB cover: 13
  Mod-K: 4
  RLT: 6
  Relax-and-lift: 125

Explored 8729 nodes (332513 simplex iterations) in 16.53 seconds
Thread count was 1 (of 4 available processors)

Solution count 10: 3.10544 3.11438 3.13001 ... 3.42088

Optimal solution found (tolerance 1.00e-04)
Best objective 3.105442072059e+00, best bound 3.105442072059e+00, gap 0.0000%

---------------------------------------------------------------------------
Multi-objectives: solved in 16.53 seconds, solution count 10

